proyfinal/src/viki/013/experimentInOfficeAgust.take6.output/85e71b8b-ddc8-4a0c-b4a8-c4db1d2aca55.als.out
Reading from standard input... Use '--help' for help.
============================[ Problem Statistics ]=============================
|                                                                             |
|  Number of variables:         87638                                         |
|  Number of clauses:          161767                                         |
|  Parse time:                   0.03 s                                       |
|                                                                             |
============================[ Search Statistics ]==============================
| Conflicts |          ORIGINAL         |          LEARNT          | Progress |
|           |    Vars  Clauses Literals |    Limit  Clauses Lit/Cl |          |
===============================================================================
|       100 |   63150   107986   269825 |    39594      100     10 | 27.942 % |
|       250 |   63150   107986   269825 |    43554      250     34 | 27.942 % |
|       475 |   63150   107986   269825 |    47909      475     73 | 27.942 % |
|       812 |   63132   107953   269741 |    52700      810     75 | 27.963 % |
|      1318 |   63132   107920   269653 |    57970     1313    107 | 27.963 % |
|      2077 |   63131   107876   269563 |    63767     2071     99 | 27.964 % |
|      3216 |   63102   107758   269289 |    70144     3209    107 | 27.997 % |
|      4924 |   63102   107758   269289 |    77159     4917    102 | 27.997 % |
|      7486 |   63050   107610   268947 |    84875     7474    107 | 28.056 % |
|     11330 |   63030   107472   268606 |    93362    11287     97 | 28.079 % |
|     17096 |   62931   107033   267601 |   102698    15919    102 | 28.192 % |
===============================================================================
restarts              : 63
conflicts             : 18494          (6389 /sec)
decisions             : 67588          (0.00 % random) (23349 /sec)
propagations          : 27002596       (9328159 /sec)
conflict literals     : 1859776        (47.54 % deleted)
Memory used           : 42.38 MB
CPU time              : 2.89474 s

INDETERMINATE
